\ENCODING=ISO-8859-1
\Problem name: IloCplex

Minimize
 obj: 27.5 x1 + 22.5 x2 + x3 + 5.625 x5 + 5.625 x6 + 5.625 x7 + 5.625 x8
      + 6.875 x9 + 5.625 x10 + 6.875 x11 + 5.625 x12
Subject To
 c1:  x1 + x5 + x6 + x9 + x10  = 1
 c2:  x2 + x7 + x8 + x11 + x12  = 1
 c3:  x1 - x4 + 0.25 x5 + 0.25 x9 - x14  = 0
 c4:  0.25 x6 - x13 - x15  = 0
 c5:  0.25 x10 - x16  = 0
 c6:  0.25 x7 + 0.25 x11 - x17  = 0
 c7:  x2 - x4 + 0.25 x8 + 0.25 x12 - x18  = 0
 c8:  - x13 - x19  = 0
 c9:  0.125 x5 + 0.125 x7 - x13 - x20  = 0
 c10: 0.125 x6 + 0.125 x8 - x21  = 0
 c11: 0.5 x1 + 0.5 x2 - x4 + 0.125 x9 + 0.125 x10 + 0.125 x11 + 0.125 x12 - x22
       = 0
 c12: x4 + x13  = 1
Bounds
      x3 = 0
-9.22337203685478e+18 <= x14 <= 0
-9.22337203685478e+18 <= x15 <= 0
-9.22337203685478e+18 <= x16 <= 0
-9.22337203685478e+18 <= x17 <= 0
-9.22337203685478e+18 <= x18 <= 0
-9.22337203685478e+18 <= x19 <= 0
-9.22337203685478e+18 <= x20 <= 0
-9.22337203685478e+18 <= x21 <= 0
-9.22337203685478e+18 <= x22 <= 0
End
